Ti Se 
 1.0000000000000000
     3.5442620599999999    0.0000000000000000    0.0000000000000000
    -1.7721310910715118    3.0694209463697115    0.0000000000000000
     0.0000000000000000    0.0000000000000000    6.6938060000000004
Ti Se 
   1   2
Cartesian
  0.0000000000000000  0.0000000000000000  0.0000000000000000
 -0.0000018128453916  2.0462816540534563  1.5474807648860001
  1.7721327817738799  1.0231392923162550  5.1463252351140003
