o2 sn1                                  
   1.00000000000000     
    10.7860082770019687    0.0000182904106013    0.0001133559643264
    -0.0000080945404673    4.7867355006099910    0.0000071599149799
    -0.0001855333910718   -0.0000271212981105   17.7541699623714244
   Sn   O 
    24    48
Direct
  0.0567518035201749  0.0035553531068477  0.0030898908659228
  0.9888489519116312  0.9942672665919463  0.3362701782078394
  0.9888486127220085  0.9942658502332820  0.6699097642831737
  0.0214327274439312  0.4942674165920315  0.1699096340846704
  0.9535299518147656  0.5035545655209216  0.5030899220337360
  0.0214325340122825  0.4942660936178050  0.8362702197721417
  0.2210421775452741  0.4916000400476093  0.4140246680703680
  0.2210418321757498  0.4915981229507648  0.5921553028658617
  0.2551407847291619  0.0000009688122123  0.2530898181813108
  0.2551405652833578  0.9999998073672560  0.7530899663820372
  0.2892395772586700  0.5084024416802828  0.0921550283499461
  0.2892396660681069  0.5084014478917254  0.9140245302291398
  0.4535299467988298  0.9964454204866841  0.5030899529926569
  0.4888488898202355  0.5057337664304895  0.3362701199417727
  0.4888485752815038  0.5057330394063603  0.6699097192264145
  0.5214325820605200  0.0057337305327761  0.1699096064413965
  0.5214326094104987  0.0057328008469613  0.8362701977671679
  0.5567518215853366  0.4964447071229795  0.0030899100116177
  0.7210420315823444  0.0084013378786502  0.4140245652300382
  0.7210418711066930  0.0084005371746519  0.5921551511874350
  0.7551408333418108  0.5000003630553743  0.2530897905889370
  0.7551405262635412  0.4999989241172866  0.7530899104155812
  0.7892396860031591  0.9915985448131471  0.0921550717070834
  0.7892396641286706  0.9915975573539914  0.9140246062665380
  0.0499548018936154  0.2884974698248310  0.4147515763254908
  0.0499541143955643  0.2884977280417663  0.5914287299234686
  0.0847893864062451  0.2036750452708700  0.2499485733786373
  0.0847894471730483  0.2036748543167705  0.7562310123999566
  0.1202180796873064  0.2805345804500166  0.0863679324677496
  0.1202184215480044  0.2805322843834645  0.9198115635663837
  0.1343399024299262  0.6938578932062871  0.5030900867916361
  0.1593543506509197  0.7946238186677961  0.3388240703429821
  0.1593541550087096  0.7946230536394647  0.6673555985725186
  0.1909340408874148  0.7042404560225544  0.1757869443628549
  0.1909338255385275  0.7042391419681091  0.8303927618263293
  0.2145755785355704  0.7592105608047278  0.0030896241809437
  0.2957068129198580  0.2407917994563508  0.5030897665191753
  0.3193472692047984  0.2957620447171895  0.3303927450600577
  0.3193472888607716  0.2957601505686593  0.6757870368862544
  0.3509269945995259  0.2053766688391238  0.1673553068987121
  0.3509272879944611  0.2053768627318552  0.8388239697200013
  0.3759415150237229  0.3061428066765240  0.0030897915140326
  0.3900634443179586  0.7194688900953627  0.4198114900078581
  0.3900632247423812  0.7194670639795839  0.5863681549533688
  0.4254918472568049  0.7963260319043043  0.2562311980099241
  0.4254914409383235  0.7963241635279671  0.7499488383896139
  0.4603274771472256  0.7115012892225632  0.0914288151265977
  0.4603272227266277  0.7115027384706828  0.9147515621489408
  0.5499546440066454  0.2115034830897837  0.4147515323519815
  0.5499542557819348  0.2115012517488740  0.5914287261577506
  0.5847894439980774  0.2963261986459139  0.2499485285750898
  0.5847894018973486  0.2963240135425850  0.7562310156192730
  0.6202181708224915  0.2194663096687491  0.0863680031459501
  0.6202183303629588  0.2194667171982167  0.9198116765451971
  0.6343399024607339  0.8061421565745069  0.5030897924093308
  0.6593543656139849  0.7053772853470219  0.3388240299753989
  0.6593541846804423  0.7053757082409644  0.6673555257332856
  0.6909340873898285  0.7957611762685146  0.1757870826303458
  0.6909338003408171  0.7957591832602781  0.8303928762951639
  0.7145756299675369  0.7407893341473937  0.0030898206841886
  0.7957068428689115  0.2592081854840240  0.5030898133118942
  0.8193474408273461  0.2042397077116691  0.3303928033367485
  0.8193471117035002  0.2042381154119899  0.6757870848261139
  0.8509269922942191  0.2946248075375069  0.1673552477172577
  0.8509272721152662  0.2946215719716823  0.8388238507675976
  0.8759415046670713  0.1938572051113376  0.0030896786408042
  0.8900635578670165  0.7805324500821079  0.4198116216129377
  0.8900631255046960  0.7805315621280886  0.5863682809946157
  0.9254918433930058  0.7036755290981501  0.2562311629491206
  0.9254914212774144  0.7036742596701802  0.7499487506285835
  0.9603274789590066  0.7884994772807641  0.0914288199411191
  0.9603271964443040  0.7884965103608098  0.9147515326740127
 
  0.00000000E+00  0.00000000E+00  0.00000000E+00
  0.00000000E+00  0.00000000E+00  0.00000000E+00
  0.00000000E+00  0.00000000E+00  0.00000000E+00
  0.00000000E+00  0.00000000E+00  0.00000000E+00
  0.00000000E+00  0.00000000E+00  0.00000000E+00
  0.00000000E+00  0.00000000E+00  0.00000000E+00
  0.00000000E+00  0.00000000E+00  0.00000000E+00
  0.00000000E+00  0.00000000E+00  0.00000000E+00
  0.00000000E+00  0.00000000E+00  0.00000000E+00
  0.00000000E+00  0.00000000E+00  0.00000000E+00
  0.00000000E+00  0.00000000E+00  0.00000000E+00
  0.00000000E+00  0.00000000E+00  0.00000000E+00
  0.00000000E+00  0.00000000E+00  0.00000000E+00
  0.00000000E+00  0.00000000E+00  0.00000000E+00
  0.00000000E+00  0.00000000E+00  0.00000000E+00
  0.00000000E+00  0.00000000E+00  0.00000000E+00
  0.00000000E+00  0.00000000E+00  0.00000000E+00
  0.00000000E+00  0.00000000E+00  0.00000000E+00
  0.00000000E+00  0.00000000E+00  0.00000000E+00
  0.00000000E+00  0.00000000E+00  0.00000000E+00
  0.00000000E+00  0.00000000E+00  0.00000000E+00
  0.00000000E+00  0.00000000E+00  0.00000000E+00
  0.00000000E+00  0.00000000E+00  0.00000000E+00
  0.00000000E+00  0.00000000E+00  0.00000000E+00
  0.00000000E+00  0.00000000E+00  0.00000000E+00
  0.00000000E+00  0.00000000E+00  0.00000000E+00
  0.00000000E+00  0.00000000E+00  0.00000000E+00
  0.00000000E+00  0.00000000E+00  0.00000000E+00
  0.00000000E+00  0.00000000E+00  0.00000000E+00
  0.00000000E+00  0.00000000E+00  0.00000000E+00
  0.00000000E+00  0.00000000E+00  0.00000000E+00
  0.00000000E+00  0.00000000E+00  0.00000000E+00
  0.00000000E+00  0.00000000E+00  0.00000000E+00
  0.00000000E+00  0.00000000E+00  0.00000000E+00
  0.00000000E+00  0.00000000E+00  0.00000000E+00
  0.00000000E+00  0.00000000E+00  0.00000000E+00
  0.00000000E+00  0.00000000E+00  0.00000000E+00
  0.00000000E+00  0.00000000E+00  0.00000000E+00
  0.00000000E+00  0.00000000E+00  0.00000000E+00
  0.00000000E+00  0.00000000E+00  0.00000000E+00
  0.00000000E+00  0.00000000E+00  0.00000000E+00
  0.00000000E+00  0.00000000E+00  0.00000000E+00
  0.00000000E+00  0.00000000E+00  0.00000000E+00
  0.00000000E+00  0.00000000E+00  0.00000000E+00
  0.00000000E+00  0.00000000E+00  0.00000000E+00
  0.00000000E+00  0.00000000E+00  0.00000000E+00
  0.00000000E+00  0.00000000E+00  0.00000000E+00
  0.00000000E+00  0.00000000E+00  0.00000000E+00
  0.00000000E+00  0.00000000E+00  0.00000000E+00
  0.00000000E+00  0.00000000E+00  0.00000000E+00
  0.00000000E+00  0.00000000E+00  0.00000000E+00
  0.00000000E+00  0.00000000E+00  0.00000000E+00
  0.00000000E+00  0.00000000E+00  0.00000000E+00
  0.00000000E+00  0.00000000E+00  0.00000000E+00
  0.00000000E+00  0.00000000E+00  0.00000000E+00
  0.00000000E+00  0.00000000E+00  0.00000000E+00
  0.00000000E+00  0.00000000E+00  0.00000000E+00
  0.00000000E+00  0.00000000E+00  0.00000000E+00
  0.00000000E+00  0.00000000E+00  0.00000000E+00
  0.00000000E+00  0.00000000E+00  0.00000000E+00
  0.00000000E+00  0.00000000E+00  0.00000000E+00
  0.00000000E+00  0.00000000E+00  0.00000000E+00
  0.00000000E+00  0.00000000E+00  0.00000000E+00
  0.00000000E+00  0.00000000E+00  0.00000000E+00
  0.00000000E+00  0.00000000E+00  0.00000000E+00
  0.00000000E+00  0.00000000E+00  0.00000000E+00
  0.00000000E+00  0.00000000E+00  0.00000000E+00
  0.00000000E+00  0.00000000E+00  0.00000000E+00
  0.00000000E+00  0.00000000E+00  0.00000000E+00
  0.00000000E+00  0.00000000E+00  0.00000000E+00
  0.00000000E+00  0.00000000E+00  0.00000000E+00
  0.00000000E+00  0.00000000E+00  0.00000000E+00
