o2 sn1                                  
   1.00000000000000     
     4.8294466954312734   -0.0000000000000000    0.0000000000000000
    -0.0000000000000000    4.8294466954312734    0.0000000000000000
     0.0000000000000000    0.0000000000000000    3.2381011186269393
   Sn   O 
     2     4
Direct
 -0.0000000000000000  0.0000000000000000 -0.0000000000000000
  0.5000000000000000  0.5000000000000000  0.5000000000000000
  0.3065564695115765  0.3065564695115765 -0.0000000000000000
  0.6934435304884238  0.6934435304884238  0.0000000000000000
  0.1934435304884234  0.8065564695115762  0.5000000000000000
  0.8065564695115762  0.1934435304884234  0.5000000000000000
 
  0.00000000E+00  0.00000000E+00  0.00000000E+00
  0.00000000E+00  0.00000000E+00  0.00000000E+00
  0.00000000E+00  0.00000000E+00  0.00000000E+00
  0.00000000E+00  0.00000000E+00  0.00000000E+00
  0.00000000E+00  0.00000000E+00  0.00000000E+00
  0.00000000E+00  0.00000000E+00  0.00000000E+00
